(set-info :smt-lib-version 2.6)
(set-logic QF_NIA)
(set-info :source |
Generated by: Cristina Borralleras, Daniel Larraz, Albert Oliveras, Enric Rodriguez-Carbonell, Albert Rubio
Generated on: 2017-04-27
Generator: VeryMax
Application: Termination proving
Target solver: barcelogic
|)
(set-info :license "https://creativecommons.org/licenses/by/4.0/")
(set-info :category "industrial")
(set-info :status unknown)
(declare-fun Nl2main_a1 () Int)
(declare-fun Nl2main_b1 () Int)
(declare-fun Nl2main_am1 () Int)
(declare-fun Nl2main_bm1 () Int)
(declare-fun Nl2main_a2 () Int)
(declare-fun Nl2main_b2 () Int)
(declare-fun Nl2main_am2 () Int)
(declare-fun Nl2main_bm2 () Int)
(declare-fun lam0n0 () Int)
(declare-fun lam0n1 () Int)
(declare-fun lam0n2 () Int)
(declare-fun lam0n3 () Int)
(declare-fun lam0n4 () Int)
(declare-fun lam0n5 () Int)
(declare-fun lam0n6 () Int)
(declare-fun Nl2CT1 () Int)
(declare-fun Nl2CT2 () Int)
(declare-fun lam1n0 () Int)
(declare-fun lam1n1 () Int)
(declare-fun lam1n2 () Int)
(declare-fun lam1n3 () Int)
(declare-fun lam1n4 () Int)
(declare-fun lam1n5 () Int)
(declare-fun lam1n6 () Int)
(declare-fun lam2n0 () Int)
(declare-fun lam2n1 () Int)
(declare-fun lam2n2 () Int)
(declare-fun lam2n3 () Int)
(declare-fun lam2n4 () Int)
(declare-fun lam2n5 () Int)
(declare-fun lam2n6 () Int)
(declare-fun lam3n0 () Int)
(declare-fun lam3n1 () Int)
(declare-fun lam3n2 () Int)
(declare-fun lam3n3 () Int)
(declare-fun lam3n4 () Int)
(declare-fun lam3n5 () Int)
(declare-fun lam4n0 () Int)
(declare-fun lam4n1 () Int)
(declare-fun lam4n2 () Int)
(declare-fun lam4n3 () Int)
(declare-fun lam4n4 () Int)
(declare-fun lam4n5 () Int)
(declare-fun lam5n0 () Int)
(declare-fun lam5n1 () Int)
(declare-fun lam5n2 () Int)
(declare-fun lam5n3 () Int)
(declare-fun lam6n0 () Int)
(declare-fun lam6n1 () Int)
(declare-fun lam6n2 () Int)
(declare-fun lam6n3 () Int)
(declare-fun lam7n0 () Int)
(declare-fun lam7n1 () Int)
(declare-fun lam7n2 () Int)
(declare-fun lam8n0 () Int)
(declare-fun lam8n1 () Int)
(declare-fun lam8n2 () Int)
(declare-fun main_a () Int)
(declare-fun main_b () Int)
(declare-fun main_am () Int)
(declare-fun main_bm () Int)
(declare-fun lam12n0 () Int)
(declare-fun lam12n1 () Int)
(declare-fun lam12n2 () Int)
(declare-fun lam12n3 () Int)
(declare-fun lam12n4 () Int)
(declare-fun lam12n5 () Int)
(declare-fun lam12n6 () Int)
(declare-fun RFN1_CT () Int)
(declare-fun RFN1_main_bm () Int)
(declare-fun RFN1_main_a () Int)
(declare-fun RFN1_main_b () Int)
(declare-fun RFN1_main_am () Int)
(declare-fun lam10n0 () Int)
(declare-fun lam10n1 () Int)
(declare-fun lam10n2 () Int)
(declare-fun lam10n3 () Int)
(declare-fun lam10n4 () Int)
(declare-fun lam10n5 () Int)
(declare-fun lam10n6 () Int)
(declare-fun lam11n0 () Int)
(declare-fun lam11n1 () Int)
(declare-fun lam11n2 () Int)
(declare-fun lam11n3 () Int)
(declare-fun lam11n4 () Int)
(declare-fun lam11n5 () Int)
(declare-fun lam11n6 () Int)
(declare-fun lam9n0 () Int)
(declare-fun lam9n1 () Int)
(declare-fun lam9n2 () Int)
(declare-fun lam9n3 () Int)
(declare-fun lam9n4 () Int)
(declare-fun lam9n5 () Int)
(declare-fun lam9n6 () Int)
(assert ( and ( <= ( - 1 ) Nl2main_a1 ) ( <= Nl2main_a1 1 ) ( <= ( - 1 ) Nl2main_b1 ) ( <= Nl2main_b1 1 ) ( <= ( - 1 ) Nl2main_am1 ) ( <= Nl2main_am1 1 ) ( <= ( - 1 ) Nl2main_bm1 ) ( <= Nl2main_bm1 1 ) ( <= ( - 1 ) Nl2main_a2 ) ( <= Nl2main_a2 1 ) ( <= ( - 1 ) Nl2main_b2 ) ( <= Nl2main_b2 1 ) ( <= ( - 1 ) Nl2main_am2 ) ( <= Nl2main_am2 1 ) ( <= ( - 1 ) Nl2main_bm2 ) ( <= Nl2main_bm2 1 ) ))
(assert ( or ( and ( >= lam0n0 0 ) ( >= lam0n1 0 ) ( >= lam0n2 0 ) ( >= lam0n3 0 ) ( >= lam0n4 0 ) ( >= lam0n5 0 ) ( >= lam0n6 0 ) ( > ( + ( * 1 lam0n3 ) ( * 1 lam0n4 ) ( * Nl2CT1 lam0n5 ) ( * Nl2CT2 lam0n6 ) ( - 1 ) ) 0 ) ( = ( + ( * 1 lam0n0 ) ( * 1 lam0n1 ) ( * ( - 1 ) lam0n2 ) ( * 1 lam0n3 ) ( * Nl2main_a1 lam0n5 ) ( * Nl2main_a2 lam0n6 ) ) 0 ) ( = ( + ( * ( - 1 ) lam0n1 ) ( * 1 lam0n2 ) ( * 1 lam0n3 ) ( * Nl2main_b1 lam0n5 ) ( * Nl2main_b2 lam0n6 ) ) 0 ) ( = ( + ( * ( - 1 ) lam0n1 ) ( * ( - 1 ) lam0n3 ) ( * ( - 1 ) lam0n4 ) ( * Nl2main_am1 lam0n5 ) ( * Nl2main_am2 lam0n6 ) ) 0 ) ( = ( + ( * 1 lam0n1 ) ( * 1 lam0n3 ) ( * 1 lam0n4 ) ( * Nl2main_bm1 lam0n5 ) ( * Nl2main_bm2 lam0n6 ) ) 0 ) ) ( and ( >= lam1n0 0 ) ( >= lam1n1 0 ) ( >= lam1n2 0 ) ( >= lam1n3 0 ) ( >= lam1n4 0 ) ( >= lam1n5 0 ) ( >= lam1n6 0 ) ( > ( + ( * 1 lam1n3 ) ( * 1 lam1n4 ) ( * Nl2CT1 lam1n5 ) ( * Nl2CT2 lam1n6 ) ( - 1 ( + Nl2CT1 ( * Nl2main_bm1 0 ) ) ) ) 0 ) ( = ( + ( * 1 lam1n0 ) ( * 1 lam1n1 ) ( * ( - 1 ) lam1n2 ) ( * 1 lam1n3 ) ( * Nl2main_a1 lam1n5 ) ( * Nl2main_a2 lam1n6 ) ( - ( + 0 Nl2main_a1 ) ) ) 0 ) ( = ( + ( * ( - 1 ) lam1n1 ) ( * 1 lam1n2 ) ( * 1 lam1n3 ) ( * Nl2main_b1 lam1n5 ) ( * Nl2main_b2 lam1n6 ) ( - ( + ( + 0 Nl2main_b1 ) ( * Nl2main_bm1 1 ) ) ) ) 0 ) ( = ( + ( * ( - 1 ) lam1n1 ) ( * ( - 1 ) lam1n3 ) ( * ( - 1 ) lam1n4 ) ( * Nl2main_am1 lam1n5 ) ( * Nl2main_am2 lam1n6 ) ( - ( + 0 Nl2main_am1 ) ) ) 0 ) ( = ( + ( * 1 lam1n1 ) ( * 1 lam1n3 ) ( * 1 lam1n4 ) ( * Nl2main_bm1 lam1n5 ) ( * Nl2main_bm2 lam1n6 ) ( - ( + 0 ( * Nl2main_bm1 1 ) ) ) ) 0 ) ) ))
(assert ( or ( and ( >= lam0n0 0 ) ( >= lam0n1 0 ) ( >= lam0n2 0 ) ( >= lam0n3 0 ) ( >= lam0n4 0 ) ( >= lam0n5 0 ) ( >= lam0n6 0 ) ( > ( + ( * 1 lam0n3 ) ( * 1 lam0n4 ) ( * Nl2CT1 lam0n5 ) ( * Nl2CT2 lam0n6 ) ( - 1 ) ) 0 ) ( = ( + ( * 1 lam0n0 ) ( * 1 lam0n1 ) ( * ( - 1 ) lam0n2 ) ( * 1 lam0n3 ) ( * Nl2main_a1 lam0n5 ) ( * Nl2main_a2 lam0n6 ) ) 0 ) ( = ( + ( * ( - 1 ) lam0n1 ) ( * 1 lam0n2 ) ( * 1 lam0n3 ) ( * Nl2main_b1 lam0n5 ) ( * Nl2main_b2 lam0n6 ) ) 0 ) ( = ( + ( * ( - 1 ) lam0n1 ) ( * ( - 1 ) lam0n3 ) ( * ( - 1 ) lam0n4 ) ( * Nl2main_am1 lam0n5 ) ( * Nl2main_am2 lam0n6 ) ) 0 ) ( = ( + ( * 1 lam0n1 ) ( * 1 lam0n3 ) ( * 1 lam0n4 ) ( * Nl2main_bm1 lam0n5 ) ( * Nl2main_bm2 lam0n6 ) ) 0 ) ) ( and ( >= lam2n0 0 ) ( >= lam2n1 0 ) ( >= lam2n2 0 ) ( >= lam2n3 0 ) ( >= lam2n4 0 ) ( >= lam2n5 0 ) ( >= lam2n6 0 ) ( > ( + ( * 1 lam2n3 ) ( * 1 lam2n4 ) ( * Nl2CT1 lam2n5 ) ( * Nl2CT2 lam2n6 ) ( - 1 ( + Nl2CT2 ( * Nl2main_bm2 0 ) ) ) ) 0 ) ( = ( + ( * 1 lam2n0 ) ( * 1 lam2n1 ) ( * ( - 1 ) lam2n2 ) ( * 1 lam2n3 ) ( * Nl2main_a1 lam2n5 ) ( * Nl2main_a2 lam2n6 ) ( - ( + 0 Nl2main_a2 ) ) ) 0 ) ( = ( + ( * ( - 1 ) lam2n1 ) ( * 1 lam2n2 ) ( * 1 lam2n3 ) ( * Nl2main_b1 lam2n5 ) ( * Nl2main_b2 lam2n6 ) ( - ( + ( + 0 Nl2main_b2 ) ( * Nl2main_bm2 1 ) ) ) ) 0 ) ( = ( + ( * ( - 1 ) lam2n1 ) ( * ( - 1 ) lam2n3 ) ( * ( - 1 ) lam2n4 ) ( * Nl2main_am1 lam2n5 ) ( * Nl2main_am2 lam2n6 ) ( - ( + 0 Nl2main_am2 ) ) ) 0 ) ( = ( + ( * 1 lam2n1 ) ( * 1 lam2n3 ) ( * 1 lam2n4 ) ( * Nl2main_bm1 lam2n5 ) ( * Nl2main_bm2 lam2n6 ) ( - ( + 0 ( * Nl2main_bm2 1 ) ) ) ) 0 ) ) ))
(assert ( or ( and ( <= main_a 0 ) ( <= ( + ( * ( - 1 ) main_a ) main_b ) 0 ) ( not ( <= ( + ( * ( - 1 ) main_a ) ( * ( - 1 ) main_b ) main_am ( * ( - 1 ) main_bm ) ) 0 ) ) ( not ( <= ( + main_am ( * ( - 1 ) main_bm ) ) 0 ) ) ( = ( + main_a ( * ( - 1 ) main_am ) ) 0 ) ( = ( + main_b ( * ( - 1 ) main_bm ) ) 0 ) ( <= ( + Nl2CT1 ( * ( + 0 Nl2main_a1 ) main_a ) ( * ( + 0 Nl2main_b1 ) main_b ) ( * ( + 0 Nl2main_am1 ) main_am ) ( * ( + 0 Nl2main_bm1 ) main_bm ) ) 0 ) ( <= ( + Nl2CT2 ( * ( + 0 Nl2main_a2 ) main_a ) ( * ( + 0 Nl2main_b2 ) main_b ) ( * ( + 0 Nl2main_am2 ) main_am ) ( * ( + 0 Nl2main_bm2 ) main_bm ) ) 0 ) ( <= main_a 0 ) ( <= ( + ( * ( - 1 ) main_a ) main_b ) 0 ) ) ( and ( <= main_a 0 ) ( not ( <= ( + ( * ( - 1 ) main_a ) main_b ) 0 ) ) ( = ( + main_a ( * ( - 1 ) main_am ) ) 0 ) ( = ( + main_b ( * ( - 1 ) main_bm ) ) 0 ) ( <= ( + Nl2CT1 ( * ( + 0 Nl2main_a1 ) main_a ) ( * ( + 0 Nl2main_b1 ) main_b ) ( * ( + 0 Nl2main_am1 ) main_am ) ( * ( + 0 Nl2main_bm1 ) main_bm ) ) 0 ) ( <= ( + Nl2CT2 ( * ( + 0 Nl2main_a2 ) main_a ) ( * ( + 0 Nl2main_b2 ) main_b ) ( * ( + 0 Nl2main_am2 ) main_am ) ( * ( + 0 Nl2main_bm2 ) main_bm ) ) 0 ) ( <= main_a 0 ) ( <= ( + ( * ( - 1 ) main_a ) main_b ) 0 ) ) ( and ( not ( <= main_a 0 ) ) ( = ( + main_a ( * ( - 1 ) main_am ) ) 0 ) ( = ( + main_b ( * ( - 1 ) main_bm ) ) 0 ) ( <= ( + Nl2CT1 ( * ( + 0 Nl2main_a1 ) main_a ) ( * ( + 0 Nl2main_b1 ) main_b ) ( * ( + 0 Nl2main_am1 ) main_am ) ( * ( + 0 Nl2main_bm1 ) main_bm ) ) 0 ) ( <= ( + Nl2CT2 ( * ( + 0 Nl2main_a2 ) main_a ) ( * ( + 0 Nl2main_b2 ) main_b ) ( * ( + 0 Nl2main_am2 ) main_am ) ( * ( + 0 Nl2main_bm2 ) main_bm ) ) 0 ) ( <= main_a 0 ) ( <= ( + ( * ( - 1 ) main_a ) main_b ) 0 ) ) ))
(assert ( or ( and ( and ( >= lam12n0 0 ) ( >= lam12n1 0 ) ( >= lam12n2 0 ) ( >= lam12n3 0 ) ( >= lam12n4 0 ) ( >= lam12n5 0 ) ( >= lam12n6 0 ) ( > ( + ( * 1 lam12n3 ) ( * 1 lam12n4 ) ( * Nl2CT1 lam12n5 ) ( * Nl2CT2 lam12n6 ) ( - 1 ( - ( + RFN1_CT ( * RFN1_main_bm 0 ) ) RFN1_CT ) ) ) 0 ) ( = ( + ( * 1 lam12n0 ) ( * 1 lam12n1 ) ( * ( - 1 ) lam12n2 ) ( * 1 lam12n3 ) ( * Nl2main_a1 lam12n5 ) ( * Nl2main_a2 lam12n6 ) ( - ( - ( + 0 RFN1_main_a ) RFN1_main_a ) ) ) 0 ) ( = ( + ( * ( - 1 ) lam12n1 ) ( * 1 lam12n2 ) ( * 1 lam12n3 ) ( * Nl2main_b1 lam12n5 ) ( * Nl2main_b2 lam12n6 ) ( - ( - ( + ( + 0 RFN1_main_b ) ( * RFN1_main_bm 1 ) ) RFN1_main_b ) ) ) 0 ) ( = ( + ( * ( - 1 ) lam12n1 ) ( * ( - 1 ) lam12n3 ) ( * ( - 1 ) lam12n4 ) ( * Nl2main_am1 lam12n5 ) ( * Nl2main_am2 lam12n6 ) ( - ( - ( + 0 RFN1_main_am ) RFN1_main_am ) ) ) 0 ) ( = ( + ( * 1 lam12n1 ) ( * 1 lam12n3 ) ( * 1 lam12n4 ) ( * Nl2main_bm1 lam12n5 ) ( * Nl2main_bm2 lam12n6 ) ( - ( - ( + 0 ( * RFN1_main_bm 1 ) ) RFN1_main_bm ) ) ) 0 ) ) ( and ( and ( >= lam10n0 0 ) ( >= lam10n1 0 ) ( >= lam10n2 0 ) ( >= lam10n3 0 ) ( >= lam10n4 0 ) ( >= lam10n5 0 ) ( >= lam10n6 0 ) ( > ( + ( * 1 lam10n3 ) ( * 1 lam10n4 ) ( * Nl2CT1 lam10n5 ) ( * Nl2CT2 lam10n6 ) ( - 1 ( - RFN1_CT ) ) ) 0 ) ( = ( + ( * 1 lam10n0 ) ( * 1 lam10n1 ) ( * ( - 1 ) lam10n2 ) ( * 1 lam10n3 ) ( * Nl2main_a1 lam10n5 ) ( * Nl2main_a2 lam10n6 ) ( - ( - RFN1_main_a ) ) ) 0 ) ( = ( + ( * ( - 1 ) lam10n1 ) ( * 1 lam10n2 ) ( * 1 lam10n3 ) ( * Nl2main_b1 lam10n5 ) ( * Nl2main_b2 lam10n6 ) ( - ( - RFN1_main_b ) ) ) 0 ) ( = ( + ( * ( - 1 ) lam10n1 ) ( * ( - 1 ) lam10n3 ) ( * ( - 1 ) lam10n4 ) ( * Nl2main_am1 lam10n5 ) ( * Nl2main_am2 lam10n6 ) ( - ( - RFN1_main_am ) ) ) 0 ) ( = ( + ( * 1 lam10n1 ) ( * 1 lam10n3 ) ( * 1 lam10n4 ) ( * Nl2main_bm1 lam10n5 ) ( * Nl2main_bm2 lam10n6 ) ( - ( - RFN1_main_bm ) ) ) 0 ) ) ( and ( >= lam11n0 0 ) ( >= lam11n1 0 ) ( >= lam11n2 0 ) ( >= lam11n3 0 ) ( >= lam11n4 0 ) ( >= lam11n5 0 ) ( >= lam11n6 0 ) ( > ( + ( * 1 lam11n3 ) ( * 1 lam11n4 ) ( * Nl2CT1 lam11n5 ) ( * Nl2CT2 lam11n6 ) ( - 1 ( + ( - ( + RFN1_CT ( * RFN1_main_bm 0 ) ) RFN1_CT ) 1 ) ) ) 0 ) ( = ( + ( * 1 lam11n0 ) ( * 1 lam11n1 ) ( * ( - 1 ) lam11n2 ) ( * 1 lam11n3 ) ( * Nl2main_a1 lam11n5 ) ( * Nl2main_a2 lam11n6 ) ( - ( - ( + 0 RFN1_main_a ) RFN1_main_a ) ) ) 0 ) ( = ( + ( * ( - 1 ) lam11n1 ) ( * 1 lam11n2 ) ( * 1 lam11n3 ) ( * Nl2main_b1 lam11n5 ) ( * Nl2main_b2 lam11n6 ) ( - ( - ( + ( + 0 RFN1_main_b ) ( * RFN1_main_bm 1 ) ) RFN1_main_b ) ) ) 0 ) ( = ( + ( * ( - 1 ) lam11n1 ) ( * ( - 1 ) lam11n3 ) ( * ( - 1 ) lam11n4 ) ( * Nl2main_am1 lam11n5 ) ( * Nl2main_am2 lam11n6 ) ( - ( - ( + 0 RFN1_main_am ) RFN1_main_am ) ) ) 0 ) ( = ( + ( * 1 lam11n1 ) ( * 1 lam11n3 ) ( * 1 lam11n4 ) ( * Nl2main_bm1 lam11n5 ) ( * Nl2main_bm2 lam11n6 ) ( - ( - ( + 0 ( * RFN1_main_bm 1 ) ) RFN1_main_bm ) ) ) 0 ) ) ) ) ( and ( >= lam9n0 0 ) ( >= lam9n1 0 ) ( >= lam9n2 0 ) ( >= lam9n3 0 ) ( >= lam9n4 0 ) ( >= lam9n5 0 ) ( >= lam9n6 0 ) ( > ( + ( * 1 lam9n3 ) ( * 1 lam9n4 ) ( * Nl2CT1 lam9n5 ) ( * Nl2CT2 lam9n6 ) ( - 1 ) ) 0 ) ( = ( + ( * 1 lam9n0 ) ( * 1 lam9n1 ) ( * ( - 1 ) lam9n2 ) ( * 1 lam9n3 ) ( * Nl2main_a1 lam9n5 ) ( * Nl2main_a2 lam9n6 ) ) 0 ) ( = ( + ( * ( - 1 ) lam9n1 ) ( * 1 lam9n2 ) ( * 1 lam9n3 ) ( * Nl2main_b1 lam9n5 ) ( * Nl2main_b2 lam9n6 ) ) 0 ) ( = ( + ( * ( - 1 ) lam9n1 ) ( * ( - 1 ) lam9n3 ) ( * ( - 1 ) lam9n4 ) ( * Nl2main_am1 lam9n5 ) ( * Nl2main_am2 lam9n6 ) ) 0 ) ( = ( + ( * 1 lam9n1 ) ( * 1 lam9n3 ) ( * 1 lam9n4 ) ( * Nl2main_bm1 lam9n5 ) ( * Nl2main_bm2 lam9n6 ) ) 0 ) ) ))
(check-sat)
(exit)
